outputs/case_226.model.txt
honesty_and_credit_principle_followed = False
not_following_client_instructions = False
misappropriation_or_improper_custody = False
illegal_disclosure_of_client_info = False
insider_trading_for_speculation = False
offsetting_trades_without_legal_exception = False
shared_trading_loss_profit = False
other_prohibited_acts = False
unauthorized_agent_trading_accepted = False
accept_trades_with_insider_or_market_manipulation_intent = False
loan_or_securities_lending_with_client = False
profit_guarantee_or_sharing = False
unapproved_securities_promotion = False
fraud_or_misrepresentation_in_underwriting_or_trading = False
full_discretionary_trading_accepted = False
self_dealing_in_client_trades = False
unsolicited_stock_recommendation = False
internal_person_proxy_trading_accepted = False
inducing_trades_by_price_prediction = False
using_others_or_relatives_name_for_client_trading = False
unauthorized_proxy_account_opening_or_trading = False
improper_benefit_agreement_in_underwriting = False
non_owner_account_opening_accepted = False
accept_trades_without_proper_contract = False
using_client_account_for_trading = False
prohibited_behavior_16 = True
prohibited_behavior_10 = True
prohibited_behavior_2 = True
prohibited_behavior_23 = True
prohibited_behavior_12 = True
prohibited_behavior_11 = True
all_prohibited_behaviors_compliance = True
prohibited_behavior_15 = True
prohibited_behavior_4 = True
prohibited_behavior_20 = True
honesty_and_credit_compliance = False
prohibited_behavior_3 = True
prohibited_behavior_22 = True
prohibited_behavior_6 = True
prohibited_behavior_21 = True
prohibited_behavior_7 = True
prohibited_behavior_18 = True
prohibited_behavior_9 = True
violation_of_law = False
prohibited_behavior_8 = True
prohibited_behavior_14 = True
prohibited_behavior_24 = True
penalty_applicable = False
prohibited_behavior_19 = True
prohibited_behavior_17 = True
violation_detected = False
prohibited_behavior_5 = True
prohibited_behavior_13 = True
penalty = False
prohibited_behavior_1 = True